clingo version 5.5.2
Reading from ...nt/beegfs/home/jubruns/encoding/mif.lp ...
Solving...
Answer: 1
move(2,(2,4),(2,3),1) move(3,(5,5),(5,4),1) move(6,(2,3),(2,2),1) move(8,(4,6),(4,5),1) move(10,(4,5),(5,5),1) move(1,(5,1),(5,2),2) move(2,(2,3),(2,2),2) move(3,(5,4),(5,3),2) move(4,(4,4),(5,4),2) move(5,(2,5),(3,5),2) move(6,(2,2),(3,2),2) move(7,(6,1),(5,1),2) move(8,(4,5),(4,4),2) move(9,(3,5),(3,4),2) move(1,(5,2),(5,3),3) move(2,(2,2),(2,1),3) move(3,(5,3),(5,4),3) move(4,(5,4),(4,4),3) move(5,(3,5),(4,5),3) move(7,(5,1),(5,2),3) move(8,(4,4),(4,3),3) move(9,(3,4),(3,3),3) move(2,(2,1),(3,1),4) move(4,(4,4),(4,5),4) move(5,(4,5),(4,6),4) move(8,(4,3),(4,2),4) move(9,(3,3),(4,3),4) move(1,(5,3),(5,2),5) move(3,(5,4),(5,3),5) move(7,(5,2),(4,2),5) move(8,(4,2),(4,1),5) move(8,(4,1),(5,1),6) move(8,(5,1),(6,1),7)
SATISFIABLE

Models       : 1+
Calls        : 1
Time         : 0.156s (Solving: 0.00s 1st Model: 0.00s Unsat: 0.00s)
CPU Time     : 0.129s

Choices      : 135     
Conflicts    : 4        (Analyzed: 4)
Restarts     : 0       
Model-Level  : 104.0   
Problems     : 1        (Average Length: 0.00 Splits: 0)
Lemmas       : 4        (Deleted: 0)
  Binary     : 0        (Ratio:   0.00%)
  Ternary    : 0        (Ratio:   0.00%)
  Conflict   : 4        (Average Length:   13.2 Ratio: 100.00%) 
  Loop       : 0        (Average Length:    0.0 Ratio:   0.00%) 
  Other      : 0        (Average Length:    0.0 Ratio:   0.00%) 
Backjumps    : 4        (Average:  7.75 Max:  19 Sum:     31)
  Executed   : 4        (Average:  7.75 Max:  19 Sum:     31 Ratio: 100.00%)
  Bounded    : 0        (Average:  0.00 Max:   0 Sum:      0 Ratio:   0.00%)

Rules        : 70587    (Original: 71169)
  Choice     : 140     
  Heuristic  : 28431    (Original: 31779)
Atoms        : 23790   
Bodies       : 29421    (Original: 26655)
  Count      : 354      (Original: 566)
Equivalences : 32776    (Atom=Atom: 6219 Body=Body: 6104 Other: 20453)
Tight        : Yes
Variables    : 24156    (Eliminated:    0 Frozen: 13797)
Constraints  : 52433    (Binary:  80.8% Ternary:  12.1% Other:   7.2%)

